
%FILE DATA:	Soccer Computational Problem for MiniZinc Models	%
%AUTHOR:	Jack Wall	%
%CONTACT:  	116397063@umail.ucc.ie			%
%LAST UPDATE:	03/19/2020, 15:21:49						%
%DESCRIPTION: 	255 games played with 17 games left				%


n=17; %number of teams

%Games to play
games=[|3,12|5,4|3,6|10,11|3,16|5,12|9,8|11,3|14,1|13,2|8,13|7,13|1,15|1,7|14,17|14,6|17,8|];

%Initial points
iPoints=[37,39,38,40,53,43,44,44,45,37,33,31,47,36,35,35,39];

%POSITION CONSTRAINTS
% [|teamID, operator, position|...]
% operators index:
%  1 for =  operator
%  2 for >  operator
%  3 for >= operator
%  4 for <  operator
%  5 for <= operator
positionConstraints=[|5,4,2|13,4,3|8,1,3|3,3,4|];